* ENCODING=ISO-8859-1
NAME          CPLEX
ROWS
 N  obj1    
 G  c1      
 G  c2      
 G  c3      
 G  c4      
 G  c5      
 G  c6      
 G  c7      
 G  c8      
 G  c9      
 G  c10     
 G  c11     
 G  c12     
 G  c13     
 G  c14     
 G  c15     
 G  c16     
 G  c17     
 G  c18     
 G  c19     
 G  c20     
 G  c21     
 G  c22     
 G  c23     
 G  c24     
 G  c25     
 G  c26     
 G  c27     
 G  c28     
 G  c29     
 G  c30     
 G  c31     
 G  c32     
 G  c33     
 G  c34     
 G  c35     
 G  c36     
 G  c37     
 G  c38     
 G  c39     
 G  c40     
 G  c41     
 G  c42     
 G  c43     
 G  c44     
 G  c45     
 G  c46     
 G  c47     
 G  c48     
 G  c49     
 G  c50     
 G  c51     
 G  c52     
 G  c53     
 G  c54     
 G  c55     
 G  c56     
 G  c57     
 G  c58     
 G  c59     
 G  c60     
COLUMNS
    MARK0000  'MARKER'                 'INTORG'
    x1        obj1                            1
    x1        c29                           298
    x1        c30                           680
    x1        c54                           270
    x1        c59                           478
    x2        obj1                            1
    x2        c5                            121
    x2        c15                           274
    x2        c17                           737
    x2        c32                           631
    x2        c48                           339
    x2        c49                           858
    x2        c59                           232
    x3        obj1                            1
    x3        c3                            819
    x3        c4                            878
    x3        c5                            128
    x3        c17                           770
    x3        c30                           893
    x3        c37                           478
    x3        c52                           664
    x3        c53                           207
    x4        obj1                            1
    x4        c2                            103
    x4        c16                           854
    x4        c26                           204
    x4        c29                           773
    x4        c32                           988
    x4        c40                           345
    x4        c44                           735
    x5        obj1                            1
    x5        c2                            759
    x5        c12                           544
    x5        c26                           671
    x5        c29                           728
    x5        c31                           363
    x5        c34                           896
    x5        c37                           773
    x6        obj1                            1
    x6        c12                           451
    x6        c23                           847
    x6        c27                           488
    x6        c56                           876
    x6        c59                           864
    x7        obj1                            1
    x7        c27                           500
    x7        c32                           379
    x7        c35                           596
    x8        obj1                            1
    x8        c13                           577
    x8        c20                           340
    x9        obj1                            1
    x9        c15                           464
    x9        c23                           570
    x9        c31                           777
    x9        c33                           509
    x9        c42                           316
    x10       obj1                            1
    x10       c18                           267
    x10       c29                           663
    x10       c56                           909
    x11       obj1                            1
    x11       c17                           983
    x11       c19                           190
    x11       c28                           577
    x11       c35                           351
    x12       obj1                            1
    x12       c21                           620
    x12       c34                           333
    x12       c45                           526
    x12       c59                           318
    x13       obj1                            1
    x13       c16                           989
    x13       c36                           640
    x13       c42                           830
    x13       c46                           970
    x13       c57                           496
    x14       obj1                            1
    x14       c5                            625
    x14       c16                           151
    x14       c33                           753
    x14       c34                           729
    x14       c39                           731
    x14       c43                           187
    x14       c50                           717
    x14       c59                           749
    x15       obj1                            1
    x15       c20                           883
    x15       c30                           518
    x15       c37                           854
    x15       c51                           369
    x15       c54                           945
    x16       obj1                            1
    x16       c14                           243
    x16       c38                           318
    x16       c57                           794
    x17       obj1                            1
    x17       c1                            283
    x17       c23                           356
    x17       c24                           901
    x17       c35                           983
    x17       c36                           794
    x17       c42                           391
    x17       c53                           248
    x18       obj1                            1
    x18       c13                           406
    x18       c19                           243
    x18       c52                           220
    x19       obj1                            1
    x19       c15                           822
    x19       c22                           176
    x19       c24                           653
    x19       c52                           385
    x20       obj1                            1
    x20       c1                            408
    x20       c36                           659
    x20       c45                           302
    x20       c52                           542
    x21       obj1                            1
    x21       c48                           582
    x22       obj1                            1
    x22       c8                            675
    x22       c23                           877
    x22       c24                           255
    x22       c26                           270
    x22       c28                           571
    x22       c40                           528
    x22       c42                           502
    x22       c53                           145
    x23       obj1                            1
    x23       c11                           695
    x23       c15                           681
    x23       c20                           930
    x23       c55                           667
    x24       obj1                            1
    x24       c17                           148
    x24       c47                           941
    x25       obj1                            1
    x25       c4                            597
    x25       c5                            158
    x25       c6                            739
    x25       c10                           549
    x25       c15                           797
    x25       c46                           525
    x25       c50                           226
    x26       obj1                            1
    x26       c19                           763
    x26       c25                           628
    x27       obj1                            1
    x27       c1                            794
    x27       c4                            203
    x27       c11                           722
    x27       c22                           367
    x27       c42                           129
    x27       c44                           408
    x28       obj1                            1
    x28       c7                            513
    x28       c14                           971
    x28       c16                           127
    x28       c27                           789
    x28       c29                           936
    x28       c34                           222
    x28       c45                           867
    x29       obj1                            1
    x29       c2                            485
    x29       c20                           802
    x29       c36                           800
    x29       c37                           320
    x30       obj1                            1
    x30       c8                            675
    x30       c10                           672
    x30       c57                           716
    x31       obj1                            1
    x31       c7                            601
    x31       c32                           324
    x31       c33                           651
    x31       c38                           760
    x31       c41                           144
    x31       c42                           526
    x31       c44                           978
    x31       c49                           598
    x31       c51                           843
    x32       obj1                            1
    x32       c9                            416
    x32       c11                           950
    x32       c18                           466
    x32       c32                           688
    x32       c35                           569
    x32       c36                           130
    x32       c40                           785
    x32       c55                           625
    x32       c59                           370
    x33       obj1                            1
    x33       c10                           945
    x33       c18                           307
    x33       c20                           220
    x33       c27                           161
    x33       c31                           798
    x33       c59                           646
    x34       obj1                            1
    x34       c17                           384
    x34       c26                           968
    x34       c30                           439
    x34       c35                           427
    x34       c36                           873
    x34       c42                           846
    x34       c48                           127
    x34       c53                           546
    x35       obj1                            1
    x35       c18                           693
    x35       c27                           879
    x35       c29                           419
    x35       c30                           155
    x35       c35                           877
    x35       c36                           687
    x35       c57                           933
    x36       obj1                            1
    x36       c27                           158
    x36       c51                           212
    x37       obj1                            1
    x37       c17                           410
    x37       c21                           541
    x37       c25                           228
    x37       c30                           593
    x37       c51                           927
    x37       c52                           857
    x38       obj1                            1
    x38       c1                            845
    x38       c5                            496
    x38       c17                           108
    x38       c20                           826
    x38       c32                           751
    x38       c50                           848
    x38       c52                           935
    x39       obj1                            1
    x39       c10                           191
    x39       c59                           769
    x40       obj1                            1
    x40       c6                            653
    x40       c24                           701
    x40       c45                           506
    x40       c48                           139
    x41       obj1                            1
    x41       c2                            974
    x41       c3                            998
    x41       c10                           696
    x41       c30                           118
    x41       c33                           980
    x41       c58                           854
    x42       obj1                            1
    x42       c41                           624
    x42       c49                           599
    x42       c53                           172
    x43       obj1                            1
    x43       c16                           513
    x43       c30                           751
    x43       c48                           246
    x43       c52                           689
    x44       obj1                            1
    x44       c5                            289
    x44       c15                           604
    x44       c19                           283
    x44       c25                           255
    x44       c33                           367
    x44       c48                           681
    x44       c49                           499
    x45       obj1                            1
    x45       c4                            445
    x45       c10                           718
    x45       c13                           357
    x45       c29                           139
    x45       c47                           724
    x46       obj1                            1
    x46       c16                           165
    x46       c38                           668
    x46       c43                           918
    x46       c50                           553
    x47       obj1                            1
    x47       c6                            670
    x47       c18                           235
    x47       c21                           454
    x47       c40                           153
    x47       c53                           967
    x48       obj1                            1
    x48       c23                           452
    x48       c33                           753
    x48       c39                           533
    x48       c56                           619
    x49       obj1                            1
    x49       c2                            108
    x49       c3                            264
    x49       c7                            761
    x49       c14                           637
    x49       c15                           848
    x49       c26                           951
    x49       c43                           452
    x49       c48                           613
    x50       obj1                            1
    x50       c9                            437
    x50       c10                           744
    x50       c18                           666
    x50       c45                           562
    x50       c55                           257
    x51       obj1                            1
    x51       c3                            874
    x51       c7                            465
    x51       c29                           651
    x51       c32                           199
    x51       c34                           283
    x51       c39                           201
    x51       c47                           749
    x51       c54                           366
    x52       obj1                            1
    x52       c18                           838
    x52       c39                           419
    x52       c44                           644
    x52       c55                           536
    x53       obj1                            1
    x53       c3                            412
    x53       c5                            774
    x53       c7                            123
    x53       c35                           379
    x53       c50                           929
    x53       c53                           752
    x53       c60                           249
    x54       obj1                            1
    x54       c7                            316
    x54       c14                           417
    x54       c15                           679
    x54       c19                           649
    x54       c33                           731
    x54       c43                           988
    x54       c51                           972
    x54       c58                           565
    x54       c60                           426
    x55       obj1                            1
    x55       c7                            746
    x55       c9                            372
    x55       c10                           974
    x55       c26                           167
    x55       c31                           616
    x55       c48                           512
    x56       obj1                            1
    x56       c8                            697
    x56       c16                           784
    x56       c17                           660
    x56       c24                           629
    x56       c45                           277
    x56       c46                           355
    x56       c59                           330
    x56       c60                           863
    x57       obj1                            1
    x57       c5                            645
    x57       c12                           658
    x57       c13                           362
    x57       c22                           239
    x57       c24                           891
    x57       c28                           668
    x57       c33                           911
    x57       c39                           468
    x57       c41                           349
    x57       c46                           662
    x57       c57                           227
    x58       obj1                            1
    x58       c34                           618
    x58       c39                           724
    x58       c43                           450
    x58       c51                           429
    x59       obj1                            1
    x59       c46                           902
    x59       c47                           299
    x59       c58                           456
    x60       obj1                            1
    x60       c1                            473
    x60       c2                            454
    x60       c13                           710
    x60       c15                           515
    x60       c20                           835
    x60       c42                           157
    x60       c49                           126
    MARK0001  'MARKER'                 'INTEND'
RHS
    rhs       c1                           1402
    rhs       c2                           1442
    rhs       c3                           1684
    rhs       c4                           1062
    rhs       c5                           1618
    rhs       c6                           1031
    rhs       c7                           1763
    rhs       c8                           1024
    rhs       c9                            613
    rhs       c10                          2745
    rhs       c11                          1184
    rhs       c12                           827
    rhs       c13                          1206
    rhs       c14                          1134
    rhs       c15                          2842
    rhs       c16                          1792
    rhs       c17                          2100
    rhs       c18                          1736
    rhs       c19                          1064
    rhs       c20                          2418
    rhs       c21                           808
    rhs       c22                           391
    rhs       c23                          1551
    rhs       c24                          2015
    rhs       c25                           556
    rhs       c26                          1616
    rhs       c27                          1488
    rhs       c28                           908
    rhs       c29                          2304
    rhs       c30                          2074
    rhs       c31                          1277
    rhs       c32                          1980
    rhs       c33                          2828
    rhs       c34                          1541
    rhs       c35                          2091
    rhs       c36                          2292
    rhs       c37                          1213
    rhs       c38                           873
    rhs       c39                          1538
    rhs       c40                           906
    rhs       c41                           559
    rhs       c42                          1849
    rhs       c43                          1498
    rhs       c44                          1383
    rhs       c45                          1520
    rhs       c46                          1707
    rhs       c47                          1357
    rhs       c48                          1620
    rhs       c49                          1340
    rhs       c50                          1637
    rhs       c51                          1876
    rhs       c52                          2146
    rhs       c53                          1519
    rhs       c54                           791
    rhs       c55                          1043
    rhs       c56                          1202
    rhs       c57                          1583
    rhs       c58                           938
    rhs       c59                          2378
    rhs       c60                           769
BOUNDS
 LI bnd       x1        0
 LI bnd       x2        0
 LI bnd       x3        0
 LI bnd       x4        0
 LI bnd       x5        0
 LI bnd       x6        0
 LI bnd       x7        0
 LI bnd       x8        0
 LI bnd       x9        0
 LI bnd       x10       0
 LI bnd       x11       0
 LI bnd       x12       0
 LI bnd       x13       0
 LI bnd       x14       0
 LI bnd       x15       0
 LI bnd       x16       0
 LI bnd       x17       0
 LI bnd       x18       0
 LI bnd       x19       0
 LI bnd       x20       0
 LI bnd       x21       0
 LI bnd       x22       0
 LI bnd       x23       0
 LI bnd       x24       0
 LI bnd       x25       0
 LI bnd       x26       0
 LI bnd       x27       0
 LI bnd       x28       0
 LI bnd       x29       0
 LI bnd       x30       0
 LI bnd       x31       0
 LI bnd       x32       0
 LI bnd       x33       0
 LI bnd       x34       0
 LI bnd       x35       0
 LI bnd       x36       0
 LI bnd       x37       0
 LI bnd       x38       0
 LI bnd       x39       0
 LI bnd       x40       0
 LI bnd       x41       0
 LI bnd       x42       0
 LI bnd       x43       0
 LI bnd       x44       0
 LI bnd       x45       0
 LI bnd       x46       0
 LI bnd       x47       0
 LI bnd       x48       0
 LI bnd       x49       0
 LI bnd       x50       0
 LI bnd       x51       0
 LI bnd       x52       0
 LI bnd       x53       0
 LI bnd       x54       0
 LI bnd       x55       0
 LI bnd       x56       0
 LI bnd       x57       0
 LI bnd       x58       0
 LI bnd       x59       0
 LI bnd       x60       0
ENDATA
